Minimize
  - 7 y_0 - 19 y_1 - 19 y_2 - 16 y_3 - 10 y_4 - 11 y_5 - 4 y_6 - 7 y_7
   - 10 y_8 - 12 y_9 - 14 y_10 - 17 y_11 - 20 y_12 - 5 y_13 - 17 y_14
   - 11 y_15 - 9 y_16 - 14 y_17 - 23 y_18 - 16 y_19 - 12 y_20 - 7 y_21
   - 15 y_22 - 19 y_24 - 16 y_25 - 3 y_26 - 13 y_27 - 11 y_28 - 9 y_29
   - 21 y_30 - 13 y_31 - 13 y_32 - 18 y_33 - 13 y_34 - 16 y_35 - 19 y_36
   - 8 y_37 - 22 y_38 - 8 y_39 - 5 y_40 - 12 y_41 - 10 y_42 - 10 y_43
   - 5 y_44 - 18 y_45 - 21 y_46 - 6 y_47 - 13 y_48 - 14 y_49 + 631 Constant
Subject To
 c_0: y_36 = 1
 c_1_0: y_0 + y_7 >= 1
 c_1_1: y_1 >= 1
 c_1_2: y_2 + y_24 + y_36 >= 1
 c_1_3: y_3 + y_11 >= 1
 c_1_4: y_4 + y_16 >= 1
 c_1_5: y_5 + y_31 + y_43 >= 1
 c_1_6: y_6 + y_40 >= 1
 c_1_7: y_0 + y_7 >= 1
 c_1_8: y_8 + y_28 + y_43 >= 1
 c_1_9: y_9 + y_41 >= 1
 c_1_10: y_10 >= 1
 c_1_11: y_3 + y_11 >= 1
 c_1_12: y_12 + y_30 >= 1
 c_1_13: y_13 >= 1
 c_1_14: y_14 >= 1
 c_1_15: y_15 + y_20 >= 1
 c_1_16: y_4 + y_16 + y_43 >= 1
 c_1_17: y_17 + y_34 >= 1
 c_1_18: y_18 + y_38 >= 1
 c_1_19: y_19 >= 1
 c_1_20: y_15 + y_20 >= 1
 c_1_21: y_21 >= 1
 c_1_22: y_22 >= 1
 c_1_23: y_23 >= 1
 c_1_24: y_2 + y_24 + y_36 >= 1
 c_1_25: y_25 + y_33 >= 1
 c_1_26: y_26 >= 1
 c_1_27: y_27 + y_31 + y_32 + y_48 >= 1
 c_1_28: y_8 + y_28 + y_48 >= 1
 c_1_29: y_29 + y_37 >= 1
 c_1_30: y_12 + y_30 >= 1
 c_1_31: y_5 + y_27 + y_31 + y_48 >= 1
 c_1_32: y_27 + y_32 + y_48 >= 1
 c_1_33: y_25 + y_33 + y_35 >= 1
 c_1_34: y_17 + y_34 >= 1
 c_1_35: y_33 + y_35 >= 1
 c_1_36: y_2 + y_24 + y_36 >= 1
 c_1_37: y_29 + y_37 >= 1
 c_1_38: y_18 + y_38 >= 1
 c_1_39: y_39 >= 1
 c_1_40: y_6 + y_40 + y_47 >= 1
 c_1_41: y_9 + y_41 >= 1
 c_1_42: y_42 >= 1
 c_1_43: y_5 + y_8 + y_16 + y_43 >= 1
 c_1_44: y_44 >= 1
 c_1_45: y_45 >= 1
 c_1_46: y_46 >= 1
 c_1_47: y_40 + y_47 >= 1
 c_1_48: y_27 + y_28 + y_31 + y_32 + y_48 >= 1
 c_1_49: y_49 >= 1
Bounds
 Constant = 1
Binaries
 y_0 y_1 y_2 y_3 y_4 y_5 y_6 y_7 y_8 y_9 y_10 y_11 y_12 y_13 y_14 y_15 y_16
 y_17 y_18 y_19 y_20 y_21 y_22 y_23 y_24 y_25 y_26 y_27 y_28 y_29 y_30 y_31
 y_32 y_33 y_34 y_35 y_36 y_37 y_38 y_39 y_40 y_41 y_42 y_43 y_44 y_45 y_46
 y_47 y_48 y_49
End
